c n orig vars 76
p cnf 78 215
1 2 -77 0
3 4 -77 0
5 6 -77 0
7 8 -77 0
9 10 -77 0
11 12 -77 0
13 14 -77 0
15 16 -77 0
17 18 -77 0
19 20 -77 0
21 29 37 45 53 61 69 -78 0
22 30 38 46 54 62 70 -78 0
23 31 39 47 55 63 71 -78 0
24 32 40 48 56 64 72 -78 0
25 33 41 49 57 65 73 -78 0
26 34 42 50 58 66 74 -78 0
27 35 43 51 59 67 75 -78 0
28 36 44 52 60 68 76 -78 0
-21 -22 -78 0
-21 -23 -78 0
-21 -24 -78 0
-21 -25 -78 0
-21 -26 -78 0
-21 -27 -78 0
-21 -28 -78 0
-22 -23 -78 0
-22 -24 -78 0
-22 -25 -78 0
-22 -26 -78 0
-22 -27 -78 0
-22 -28 -78 0
-23 -24 -78 0
-23 -25 -78 0
-23 -26 -78 0
-23 -27 -78 0
-23 -28 -78 0
-24 -25 -78 0
-24 -26 -78 0
-24 -27 -78 0
-24 -28 -78 0
-25 -26 -78 0
-25 -27 -78 0
-25 -28 -78 0
-26 -27 -78 0
-26 -28 -78 0
-27 -28 -78 0
-29 -30 -78 0
-29 -31 -78 0
-29 -32 -78 0
-29 -33 -78 0
-29 -34 -78 0
-29 -35 -78 0
-29 -36 -78 0
-30 -31 -78 0
-30 -32 -78 0
-30 -33 -78 0
-30 -34 -78 0
-30 -35 -78 0
-30 -36 -78 0
-31 -32 -78 0
-31 -33 -78 0
-31 -34 -78 0
-31 -35 -78 0
-31 -36 -78 0
-32 -33 -78 0
-32 -34 -78 0
-32 -35 -78 0
-32 -36 -78 0
-33 -34 -78 0
-33 -35 -78 0
-33 -36 -78 0
-34 -35 -78 0
-34 -36 -78 0
-35 -36 -78 0
-37 -38 -78 0
-37 -39 -78 0
-37 -40 -78 0
-37 -41 -78 0
-37 -42 -78 0
-37 -43 -78 0
-37 -44 -78 0
-38 -39 -78 0
-38 -40 -78 0
-38 -41 -78 0
-38 -42 -78 0
-38 -43 -78 0
-38 -44 -78 0
-39 -40 -78 0
-39 -41 -78 0
-39 -42 -78 0
-39 -43 -78 0
-39 -44 -78 0
-40 -41 -78 0
-40 -42 -78 0
-40 -43 -78 0
-40 -44 -78 0
-41 -42 -78 0
-41 -43 -78 0
-41 -44 -78 0
-42 -43 -78 0
-42 -44 -78 0
-43 -44 -78 0
-45 -46 -78 0
-45 -47 -78 0
-45 -48 -78 0
-45 -49 -78 0
-45 -50 -78 0
-45 -51 -78 0
-45 -52 -78 0
-46 -47 -78 0
-46 -48 -78 0
-46 -49 -78 0
-46 -50 -78 0
-46 -51 -78 0
-46 -52 -78 0
-47 -48 -78 0
-47 -49 -78 0
-47 -50 -78 0
-47 -51 -78 0
-47 -52 -78 0
-48 -49 -78 0
-48 -50 -78 0
-48 -51 -78 0
-48 -52 -78 0
-49 -50 -78 0
-49 -51 -78 0
-49 -52 -78 0
-50 -51 -78 0
-50 -52 -78 0
-51 -52 -78 0
-53 -54 -78 0
-53 -55 -78 0
-53 -56 -78 0
-53 -57 -78 0
-53 -58 -78 0
-53 -59 -78 0
-53 -60 -78 0
-54 -55 -78 0
-54 -56 -78 0
-54 -57 -78 0
-54 -58 -78 0
-54 -59 -78 0
-54 -60 -78 0
-55 -56 -78 0
-55 -57 -78 0
-55 -58 -78 0
-55 -59 -78 0
-55 -60 -78 0
-56 -57 -78 0
-56 -58 -78 0
-56 -59 -78 0
-56 -60 -78 0
-57 -58 -78 0
-57 -59 -78 0
-57 -60 -78 0
-58 -59 -78 0
-58 -60 -78 0
-59 -60 -78 0
-61 -62 -78 0
-61 -63 -78 0
-61 -64 -78 0
-61 -65 -78 0
-61 -66 -78 0
-61 -67 -78 0
-61 -68 -78 0
-62 -63 -78 0
-62 -64 -78 0
-62 -65 -78 0
-62 -66 -78 0
-62 -67 -78 0
-62 -68 -78 0
-63 -64 -78 0
-63 -65 -78 0
-63 -66 -78 0
-63 -67 -78 0
-63 -68 -78 0
-64 -65 -78 0
-64 -66 -78 0
-64 -67 -78 0
-64 -68 -78 0
-65 -66 -78 0
-65 -67 -78 0
-65 -68 -78 0
-66 -67 -78 0
-66 -68 -78 0
-67 -68 -78 0
-69 -70 -78 0
-69 -71 -78 0
-69 -72 -78 0
-69 -73 -78 0
-69 -74 -78 0
-69 -75 -78 0
-69 -76 -78 0
-70 -71 -78 0
-70 -72 -78 0
-70 -73 -78 0
-70 -74 -78 0
-70 -75 -78 0
-70 -76 -78 0
-71 -72 -78 0
-71 -73 -78 0
-71 -74 -78 0
-71 -75 -78 0
-71 -76 -78 0
-72 -73 -78 0
-72 -74 -78 0
-72 -75 -78 0
-72 -76 -78 0
-73 -74 -78 0
-73 -75 -78 0
-73 -76 -78 0
-74 -75 -78 0
-74 -76 -78 0
-75 -76 -78 0
77 78 0
